
Gurobi 11.0.3 (linux64) logging started Wed Apr 15 08:23:27 2026

Set parameter LogFile to value "tree/results/htds/htds_depth-4_run-4/Full MIP/LogFile_FullModel.txt"
Gurobi Optimizer version 11.0.3 build v11.0.3rc0 (linux64 - "CentOS Linux 7 (Core)")

CPU model: Intel(R) Xeon(R) Platinum 8260 CPU @ 2.40GHz, instruction set [SSE2|AVX|AVX2|AVX512]
Thread count: 96 physical cores, 192 logical processors, using up to 32 threads

Optimize a model with 48073 rows, 29754 columns and 883487 nonzeros
Model fingerprint: 0xd62cfac7
Model has 3600 general constraints
Variable types: 18604 continuous, 11150 integer (11150 binary)
Coefficient statistics:
  Matrix range     [4e-03, 1e+04]
  Objective range  [4e-03, 1e+04]
  Bounds range     [5e-02, 7e+02]
  RHS range        [1e-04, 1e+03]

User MIP start produced solution with objective -499.28 (0.21s)
Loaded user MIP start with objective -499.28

Presolve added 3584 rows and 14400 columns
Presolve time: 1.06s
Presolved: 51657 rows, 44154 columns, 912239 nonzeros
Presolved model has 14400 SOS constraint(s)
Variable types: 18604 continuous, 25550 integer (25550 binary)

Deterministic concurrent LP optimizer: primal simplex, dual simplex, and barrier
Showing barrier log only...

Root relaxation presolved: 51657 rows, 44154 columns, 912239 nonzeros

Root barrier log...

Ordering time: 0.06s

Barrier statistics:
 Dense cols : 285
 AA' NZ     : 9.290e+05
 Factor NZ  : 3.794e+06 (roughly 70 MB of memory)
 Factor Ops : 3.068e+08 (less than 1 second per iteration)
 Threads    : 30

                  Objective                Residual
Iter       Primal          Dual         Primal    Dual     Compl     Time
   0  -7.71873686e+04  6.99073908e+08  1.80e+04 1.11e-14  7.76e+05     3s
   1  -2.57103037e+04  1.13367886e+09  4.08e+03 6.47e+01  2.25e+05     3s
   2  -3.88176582e+03  1.04557310e+09  5.62e+02 7.72e+00  3.65e+04     3s
   3  -6.55874305e+02  3.69032845e+08  5.53e+01 7.81e-01  5.19e+03     3s
   4  -3.16307180e+02  4.51329810e+07  2.14e+00 7.87e-02  5.42e+02     3s
   5  -2.50564637e+02  8.22119232e+06  2.12e-01 1.26e-02  8.98e+01     4s
   6  -5.93818623e+01  1.80778995e+06  2.10e-02 2.52e-03  1.92e+01     4s
   7  -5.03725880e+00  1.84352574e+05  2.19e-03 2.51e-04  1.95e+00     4s
   8   3.97786479e-01  2.10139954e+04  3.67e-04 2.86e-05  2.23e-01     4s
   9   9.12695439e-01  2.15660873e+03  3.64e-05 2.92e-06  2.28e-02     4s
  10   9.91269503e-01  2.16830639e+02  3.63e-06 2.92e-07  2.29e-03     4s
  11   9.99126812e-01  2.27843699e+01  3.60e-07 2.92e-08  2.31e-04     4s
  12   9.99912681e-01  3.17843956e+00  3.60e-08 2.92e-09  2.31e-05     4s
  13   9.99991268e-01  1.21987571e+00  3.57e-09 2.93e-10  2.33e-06     5s
  14   9.99999127e-01  1.02198757e+00  3.57e-10 2.93e-11  2.33e-07     5s
  15   9.99999913e-01  1.00221926e+00  3.54e-11 2.93e-12  2.35e-08     5s
  16   9.99999991e-01  1.00022193e+00  3.64e-12 2.93e-13  2.35e-09     5s
  17   9.99999999e-01  1.00002219e+00  6.82e-13 2.93e-14  2.35e-10     5s
  18   1.00000000e+00  1.00000222e+00  4.55e-13 2.93e-15  2.35e-11     6s
  19   1.00000000e+00  1.00000022e+00  4.55e-13 1.42e-14  2.35e-12     6s
  20   1.00000000e+00  1.00000002e+00  4.05e-13 2.93e-17  2.35e-13     6s
  21   1.00000000e+00  1.00000000e+00  3.98e-13 2.93e-18  2.35e-14     6s

Barrier solved model in 21 iterations and 6.14 seconds (4.28 work units)
Optimal objective 1.00000000e+00


Root crossover log...

    1987 DPushes remaining with DInf 0.0000000e+00                 6s
       0 DPushes remaining with DInf 0.0000000e+00                 6s

   17789 PPushes remaining with PInf 0.0000000e+00                 6s
       0 PPushes remaining with PInf 0.0000000e+00                 7s

  Push phase complete: Pinf 0.0000000e+00, Dinf 0.0000000e+00      7s


Root simplex log...

Iteration    Objective       Primal Inf.    Dual Inf.      Time
   17793    1.0000000e+00   0.000000e+00   0.000000e+00      7s
   17793    1.0000000e+00   0.000000e+00   0.000000e+00      7s
Concurrent spin time: 0.00s

Solved with barrier

Root relaxation: objective 1.000000e+00, 17793 iterations, 5.49 seconds (4.12 work units)
Total elapsed time = 31.77s (DegenMoves)

    Nodes    |    Current Node    |     Objective Bounds      |     Work
 Expl Unexpl |  Obj  Depth IntInf | Incumbent    BestBd   Gap | It/Node Time

     0     0    1.00000    0 3134 -499.28000    1.00000   100%     -   32s
     0     2    1.00000    0 3134 -499.28000    1.00000   100%     -  137s
H    1     4                    -499.2799982    1.00000   100%  8505  160s
    31    64    1.00000    5 3129 -499.28000    1.00000   100%   278  187s
H   37    64                    -499.2799979    1.00000   100%   233  187s
H   39    64                       0.6666667    1.00000  50.0%   221  187s
H   50    64                       0.7155556    1.00000  39.8%   173  187s
    95   128    1.00000    7 3127    0.71556    1.00000  39.8%  91.7  290s
   159   192    1.00000    9 3125    0.71556    1.00000  39.8%  55.2  398s
   191   224    1.00000   10 3124    0.71556    1.00000  39.8%  46.2  494s
   223   256    1.00000   11 3123    0.71556    1.00000  39.8%  39.7  840s
   255   288    1.00000   12 3122    0.71556    1.00000  39.8%  34.9 1054s
   287   556    1.00000   13 3121    0.71556    1.00000  39.8%  31.1 2341s
   555   947    1.00000   27 3107    0.71556    1.00000  39.8%  16.6 2484s
H  669   947                       0.7155556    1.00000  39.8%  13.9 2484s
   946  3460    1.00000   40 3087    0.71556    1.00000  39.8%  10.2 3600s
H 1291  3460                       0.7333333    1.00000  36.4%   369 3600s

Explored 3459 nodes (1465044 simplex iterations) in 3600.53 seconds (6475.57 work units)
Thread count was 32 (of 192 available processors)

Solution count 6: 0.733333 0.715556 0.715556 ... -499.28

Time limit reached
Best objective 7.333333333333e-01, best bound 1.000000000000e+00, gap 36.3636%

User-callback calls 2632480, time in user-callback 14.66 sec
